
Welcome to IBM(R) ILOG(R) CPLEX(R) Interactive Optimizer 22.1.1.0
  with Simplex, Mixed Integer & Barrier Optimizers
5725-A06 5725-A29 5724-Y48 5724-Y49 5724-Y54 5724-Y55 5655-Y21
Copyright IBM Corp. 1988, 2022.  All Rights Reserved.

Type 'help' for a list of available commands.
Type 'help' followed by a command name for more
information on commands.

CPLEX> Selected objective sense:  MINIMIZE
Selected objective  name:  00000000
Selected RHS        name:  RHS1
Selected bound      name:  BOUND
Problem 'ee.mps' read.
Read time = 0.03 sec. (3.14 ticks)
CPLEX> New value for time limit in seconds: 7200
CPLEX> New value for parallel optimization mode: -1
CPLEX> New value for default parallel thread count: 40
CPLEX> New value for mixed integer optimality gap tolerance: 1e-13
CPLEX> Version identifier: 22.1.1.0 | 2022-11-28 | 9160aff4d
CPXPARAM_Threads                                 40
CPXPARAM_Parallel                                -1
CPXPARAM_TimeLimit                               7200
CPXPARAM_MIP_Tolerances_MIPGap                   1e-13
Found incumbent of value 0.000000 after 0.00 sec. (0.31 ticks)
Tried aggregator 2 times.
MIP Presolve eliminated 183 rows and 2745 columns.
MIP Presolve modified 5862 coefficients.
Aggregator did 713 substitutions.
Reduced MIP has 3624 rows, 7744 columns, and 28666 nonzeros.
Reduced MIP has 7744 binaries, 0 generals, 0 SOSs, and 0 indicators.
Presolve time = 0.07 sec. (68.80 ticks)
Probing time = 0.03 sec. (5.32 ticks)
Tried aggregator 1 time.
Detecting symmetries...
Reduced MIP has 3624 rows, 7744 columns, and 28666 nonzeros.
Reduced MIP has 7744 binaries, 0 generals, 0 SOSs, and 0 indicators.
Presolve time = 0.03 sec. (21.95 ticks)
Probing time = 0.02 sec. (5.10 ticks)
Clique table members: 18557.
MIP emphasis: balance optimality and feasibility.
MIP search method: dynamic search.
Parallel mode: opportunistic, using up to 40 threads.
Root relaxation solution time = 0.08 sec. (67.88 ticks)

        Nodes                                         Cuts/
   Node  Left     Objective  IInf  Best Integer    Best Bound    ItCnt     Gap

*     0+    0                            0.0000  -1.31000e+13              --- 
*     0+    0                      -3.30000e+12  -1.31000e+13           296.97%
*     0+    0                      -4.40000e+12  -1.31000e+13           197.73%
*     0+    0                      -5.50000e+12  -1.31000e+13           138.18%
*     0+    0                      -6.60000e+12  -1.31000e+13            98.48%
      0     0  -1.30900e+13    82  -6.60000e+12  -1.30900e+13     1319   98.33%
*     0+    0                      -1.30900e+13  -1.30900e+13             0.00%
      0     0  -1.30900e+13   111  -1.30900e+13      Cuts: 64     1775    0.00%
*     0+    0                      -1.30900e+13  -1.30900e+13             0.00%
      0     0  -1.30900e+13   182  -1.30900e+13      Cuts: 88     2490    0.00%
*     0+    0                      -1.30900e+13  -1.30900e+13             0.00%
*     0+    0                      -1.30900e+13  -1.30900e+13             0.00%

Repeating presolve.
Tried aggregator 4 times.
MIP Presolve eliminated 1568 rows and 3999 columns.
MIP Presolve added 92 rows and 0 columns.
MIP Presolve modified 215 coefficients.
Aggregator did 523 substitutions.
Reduced MIP has 1625 rows, 3193 columns, and 11467 nonzeros.
Reduced MIP has 3193 binaries, 0 generals, 0 SOSs, and 0 indicators.
Presolve time = 0.07 sec. (69.29 ticks)
Probing fixed 39 vars, tightened 0 bounds.
Probing time = 0.03 sec. (11.14 ticks)
Tried aggregator 3 times.
MIP Presolve eliminated 61 rows and 83 columns.
MIP Presolve modified 2 coefficients.
Aggregator did 17 substitutions.
Reduced MIP has 1547 rows, 3085 columns, and 11087 nonzeros.
Reduced MIP has 3085 binaries, 0 generals, 0 SOSs, and 0 indicators.
Presolve time = 0.02 sec. (22.28 ticks)
Probing time = 0.03 sec. (9.17 ticks)
Tried aggregator 1 time.
Detecting symmetries...
MIP Presolve eliminated 8 rows and 4 columns.
Reduced MIP has 1539 rows, 3081 columns, and 11063 nonzeros.
Reduced MIP has 3081 binaries, 0 generals, 0 SOSs, and 0 indicators.
Presolve time = 0.01 sec. (12.03 ticks)
Represolve time = 0.20 sec. (148.90 ticks)
Probing time = 0.02 sec. (3.46 ticks)
Clique table members: 7303.
MIP emphasis: balance optimality and feasibility.
MIP search method: dynamic search.
Parallel mode: opportunistic, using up to 40 threads.
Root relaxation solution time = 0.05 sec. (34.84 ticks)

        Nodes                                         Cuts/
   Node  Left     Objective  IInf  Best Integer    Best Bound    ItCnt     Gap

*     0+    0                      -1.30900e+13  -1.30900e+13             0.00%
      0     0  -1.30900e+13   149  -1.30900e+13  -1.30900e+13     3659    0.00%
      0     0  -1.30900e+13   176  -1.30900e+13     Cuts: 100     3849    0.00%
      0     0  -1.30900e+13   176  -1.30900e+13     Cuts: 118     4024    0.00%
*     0+    0                      -1.30900e+13  -1.30900e+13             0.00%
      0     2  -1.30900e+13   176  -1.30900e+13  -1.30900e+13     4024    0.00%
Elapsed time = 1.93 sec. (1250.50 ticks, tree = 0.02 MB, solutions = 10)
   1683    59        cutoff        -1.30900e+13  -1.30900e+13    64245    0.00%
   2895    27        cutoff        -1.30900e+13  -1.30900e+13   130467    0.00%

GUB cover cuts applied:  6
Clique cuts applied:  25
Cover cuts applied:  347
Implied bound cuts applied:  4
Flow cuts applied:  4
Mixed integer rounding cuts applied:  19
Zero-half cuts applied:  34
Lift and project cuts applied:  21
Gomory fractional cuts applied:  11

Root node processing (before b&c):
  Real time             =    1.53 sec. (1250.10 ticks)
Parallel b&c, 40 threads:
  Real time             =    1.35 sec. (518.98 ticks)
  Sync time (average)   =    0.53 sec.
  Wait time (average)   =    0.00 sec.
                          ------------
Total (root+branch&cut) =    2.88 sec. (1769.08 ticks)

Solution pool: 10 solutions saved.

MIP - Integer optimal solution:  Objective = -1.3089998990e+13
Solution time =    2.94 sec.  Iterations = 174888  Nodes = 2926
Deterministic time = 1769.12 ticks  (601.85 ticks/sec)

CPLEX> Solution 'p11' written to file 'ee.sol'.
CPLEX> 